# This is a psi4 input file auto-generated for an n_body properties job.
molecule test_1 {
    units Angstrom
    no_com
    no_reorient
    0 1
    O               11.050000000000001    14.880000000000001    13.420000000000002
    H               11.070000000000000    14.670000000000000    14.349999999999998
    H               11.779999999999999    15.490000000000000    13.290000000000001

}
core.set_memory_bytes(524288000)

core.set_global_option('BASIS', 'STO-3G')
core.set_global_option('SCF_TYPE', 'PK')

properties('cc2', properties=['polarizability'] )
