# This is a psi4 input file auto-generated for an n_body properties job.
molecule test_2 {
    units Angstrom
    no_com
    no_reorient
    0 1
    O               18.579999999999998    15.279999999999999    15.690000000000000
    H               18.510000000000002    14.460000000000001    15.220000000000001
    H               19.390000000000001    15.199999999999999    16.199999999999999

}
core.set_memory_bytes(524288000)

core.set_global_option('BASIS', 'STO-3G')
core.set_global_option('SCF_TYPE', 'PK')

properties('cc2', properties=['polarizability'] )
